Maximize
  - 4.077746650236 edge_0_2_0_0 - 2.3423747650576 edge_0_4_0_0
   - 3.3854826567204 edge_0_5_0_0 - 2.487581960684 edge_0_6_0_0
   - 1.3568618645208 edge_0_8_0_0 - 1.5043384078134 edge_0_10_0_0
   - 3.5498293979912 edge_0_15_0_0 - 0.5751318122816 edge_0_18_0_0
   - 3.6794776368335 edge_0_21_0_0 - 4.5408583438762 edge_0_27_0_0
   - 0.413412542944745 edge_1_2_0_0 - 0.8724827948011198 edge_1_5_0_0
   - 0.6849221623735987 edge_1_6_0_0 + 0.5124660843166173 edge_2_1_0_0
   + 0.6524760211557256 edge_2_5_0_0 + 0.5157142738993643 edge_2_6_0_0
   - 0.0526020382639607 edge_2_7_0_0 - 0.5099608582663728 edge_2_15_0_0
   - 1.409197379293899 edge_2_27_0_0 - 1.905489711414476 edge_2_30_0_0
   + 2.841088802928975 edge_4_1_0_0 + 3.238020794739473 edge_4_2_0_0
   + 2.460839343937122 edge_4_5_0_0 + 2.551972938479676 edge_4_6_0_0
   + 1.919927739105066 edge_4_7_0_0 + 0.2132280387566849 edge_4_8_0_0
   - 0.0497395304222402 edge_4_10_0_0 - 0.1683219904501407 edge_4_14_0_0
   + 0.8154292627745968 edge_4_15_0_0 - 0.9684285060358025 edge_4_16_0_0
   - 0.4642992388611216 edge_4_17_0_0 + 0.3710397104893733 edge_4_18_0_0
   - 0.765600988976874 edge_4_21_0_0 + 1.431562176455929 edge_4_22_0_0
   + 0.2579163488201138 edge_4_23_0_0 - 2.019313441179951 edge_4_24_0_0
   - 0.2375550294468416 edge_4_26_0_0 + 0.9521240682362031 edge_4_27_0_0
   - 1.482673586122734 edge_4_28_0_0 - 2.096287586584271 edge_4_29_0_0
   - 0.3615992138018133 edge_4_30_0_0 + 4.04342231094674 edge_4_32_0_0
   - 0.4840170561278007 edge_5_1_0_0 - 0.6256039717460511 edge_5_2_0_0
   - 0.6553145744631651 edge_5_4_0_0 + 0.1946637506015536 edge_5_6_0_0
   - 0.305579912338839 edge_5_7_0_0 - 0.069258779872198 edge_5_8_0_0
   - 0.175373018441246 edge_5_10_0_0 - 0.3233782019970253 edge_5_18_0_0
   + 1.18771335176659 edge_6_1_0_0 + 0.4938275009150162 edge_6_2_0_0
   + 0.689425842052061 edge_6_4_0_0 + 3.884659625878391 edge_6_5_0_0
   + 0.3009590233339117 edge_6_7_0_0 + 0.3626599639805071 edge_6_8_0_0
   + 0.7332901649572942 edge_6_10_0_0 + 0.4550811247395256 edge_6_14_0_0
   - 0.286907405302493 edge_6_15_0_0 + 0.3943275334175552 edge_6_18_0_0
   + 0.0236126675498619 edge_6_19_0_0 + 0.4092777648189367 edge_6_22_0_0
   + 0.4213083884278073 edge_6_23_0_0 - 1.204759579665942 edge_6_27_0_0
   + 0.0774887145698141 edge_6_30_0_0 + 0.9645625307150336 edge_6_32_0_0
   - 0.3701411281490084 edge_7_8_0_0 - 0.1182909918001157 edge_8_1_0_0
   - 0.2471508784084242 edge_8_2_0_0 - 0.1207192652519622 edge_8_4_0_0
   + 0.0718765819316654 edge_8_5_0_0 + 0.1401486959609204 edge_8_6_0_0
   - 0.115221551512041 edge_8_7_0_0 + 0.4652625877578186 edge_8_8_0_0
   + 0.2949599065742975 edge_8_10_0_0 + 0.0782662710924139 edge_8_14_0_0
   - 0.4355818664944812 edge_8_16_0_0 + 0.0535587133960611 edge_8_18_0_0
   - 0.041017802148598 edge_8_22_0_0 - 0.0336218181300858 edge_8_23_0_0
   + 0.1502189725797736 edge_10_1_0_0 - 0.8855956939009004 edge_10_2_0_0
   - 0.2663544837295883 edge_10_4_0_0 + 0.4002611878707693 edge_10_5_0_0
   + 0.211357573443066 edge_10_6_0_0 - 0.3012483971302384 edge_10_7_0_0
   + 0.4906018602249689 edge_10_8_0_0 + 0.517974672475044 edge_10_14_0_0
   - 0.1770485816312513 edge_10_15_0_0 + 0.2354408059827035 edge_10_18_0_0
   - 0.0136335517992869 edge_10_19_0_0 - 1.033913448780169 edge_10_21_0_0
   + 0.3194183312398848 edge_10_22_0_0 + 0.1724418310633806 edge_10_23_0_0
   - 0.5447421381373798 edge_10_27_0_0 + 0.0660818982422089 edge_10_30_0_0
   + 0.292803873026681 edge_10_32_0_0 - 0.8794122303780488 edge_14_4_0_0
   - 0.640444880723479 edge_14_5_0_0 - 0.2969745305626882 edge_14_6_0_0
   - 0.0227919414271311 edge_14_8_0_0 - 0.1644182705226674 edge_14_10_0_0
   + 0.1495039520765864 edge_14_18_0_0 - 0.0478697538548107 edge_14_19_0_0
   + 0.1995160486824158 edge_14_22_0_0 + 0.1366560388794795 edge_14_23_0_0
   - 0.2242494686668741 edge_14_30_0_0 - 0.00204658227879045 edge_14_32_0_0
   + 1.464485091685741 edge_15_1_0_0 + 0.8781525583506795 edge_15_2_0_0
   - 0.3798637040236144 edge_15_4_0_0 + 1.083775842176566 edge_15_5_0_0
   + 0.4311594450502043 edge_15_6_0_0 + 0.4049608020002605 edge_15_7_0_0
   + 1.268066392929752 edge_15_8_0_0 + 2.008772475763778 edge_15_10_0_0
   + 0.8863351694793429 edge_15_16_0_0 + 0.2554273642742316 edge_15_17_0_0
   + 1.155148001627591 edge_15_21_0_0 + 2.190675247242102 edge_15_22_0_0
   + 0.3168475695863908 edge_15_24_0_0 + 0.4104106725310193 edge_15_26_0_0
   + 2.134656546279942 edge_15_27_0_0 + 0.3556434927306654 edge_15_28_0_0
   - 0.2439604114536594 edge_15_29_0_0 + 1.537599336472975 edge_15_30_0_0
   + 4.042212039348483 edge_15_32_0_0 - 0.1360285634357738 edge_16_17_0_0
   - 0.3569553924699949 edge_16_21_0_0 - 0.4045398481212421 edge_16_22_0_0
   - 1.08230153965868 edge_16_24_0_0 - 0.8916653098875842 edge_16_26_0_0
   + 0.1835484754969464 edge_17_16_0_0 - 0.0641162261650502 edge_18_4_0_0
   + 0.0659836677827888 edge_18_5_0_0 + 0.2480292874285743 edge_18_6_0_0
   + 0.051560466783634 edge_18_8_0_0 + 0.222370923621221 edge_18_10_0_0
   + 0.4361455129780087 edge_18_14_0_0 + 0.3091793640625989 edge_18_19_0_0
   + 0.2818225693797983 edge_18_22_0_0 + 0.2147195477878031 edge_18_23_0_0
   - 0.2081777008907538 edge_18_29_0_0 + 0.3306215471973475 edge_18_30_0_0
   + 0.5316435239544712 edge_18_32_0_0 - 0.0154401781796724 edge_19_23_0_0
   - 0.144823285518125 edge_21_4_0_0 + 0.2251406968782116 edge_21_8_0_0
   + 0.1500352513406512 edge_21_10_0_0 + 0.0403472950475159 edge_21_15_0_0
   + 2.149868573772398 edge_21_16_0_0 + 1.485368766811099 edge_21_17_0_0
   + 1.400074319577793 edge_21_22_0_0 - 0.0298334891125027 edge_21_24_0_0
   + 0.1821822435055181 edge_21_26_0_0 + 1.001737417436361 edge_21_27_0_0
   - 0.2685593883222329 edge_21_28_0_0 - 0.4916345447120956 edge_21_29_0_0
   + 0.5395134639508976 edge_21_30_0_0 + 1.210351173550397 edge_21_32_0_0
   - 0.1048804079252113 edge_22_17_0_0 - 0.1242465804887984 edge_22_21_0_0
   + 0.0423283411311764 edge_22_24_0_0 + 0.2632221972965067 edge_22_26_0_0
   - 0.0382285935896736 edge_23_19_0_0 - 0.00897941437178159 edge_24_4_0_0
   - 0.1123017820534991 edge_24_15_0_0 + 0.9548032435462607 edge_24_16_0_0
   + 0.4688978834298484 edge_24_17_0_0 + 0.1260661545425167 edge_24_21_0_0
   + 1.132453095229995 edge_24_22_0_0 + 0.173427867518521 edge_24_26_0_0
   + 0.3375746799051497 edge_24_28_0_0 - 0.0762286238527984 edge_24_30_0_0
   + 0.2675572893037382 edge_26_24_0_0 + 0.5490477902162534 edge_26_28_0_0
   - 0.3131827495708495 edge_27_1_0_0 - 0.7541956088512403 edge_27_2_0_0
   - 0.51166528562192 edge_27_4_0_0 - 1.083390119150735 edge_27_5_0_0
   - 2.645556178462804 edge_27_6_0_0 - 0.3290216732960256 edge_27_7_0_0
   + 0.5829282980775585 edge_27_8_0_0 - 0.0385901337136416 edge_27_10_0_0
   - 0.4026727688739627 edge_27_15_0_0 - 0.0529030707099606 edge_27_16_0_0
   + 0.2370100406309455 edge_27_17_0_0 + 0.2016521386596168 edge_27_21_0_0
   + 0.8627605785346674 edge_27_22_0_0 + 2.954196898538078 edge_27_24_0_0
   + 3.527432078181548 edge_27_26_0_0 + 3.281853251365777 edge_27_28_0_0
   - 0.0869664107190433 edge_27_29_0_0 + 1.650382580555556 edge_27_30_0_0
   + 2.769620491777968 edge_27_32_0_0 + 0.2720142519323352 edge_28_16_0_0
   + 0.0997943965670656 edge_28_17_0_0 + 0.2450733403460406 edge_28_24_0_0
   + 0.3757246692815845 edge_28_26_0_0 - 0.4804883312978653 edge_28_29_0_0
   + 0.2943071455043804 edge_28_30_0_0 - 1.111293938911716 edge_29_28_0_0
   - 0.6370161814494338 edge_29_32_0_0 - 2.070140772542614 edge_30_1_0_0
   - 0.9465875357015577 edge_30_4_0_0 - 0.9806079660161553 edge_30_7_0_0
   - 0.2253778382190455 edge_30_8_0_0 - 1.589917269783266 edge_30_10_0_0
   - 0.3528116719303638 edge_30_14_0_0 - 1.527127289751237 edge_30_15_0_0
   - 1.000149879542186 edge_30_16_0_0 - 0.1628644988056325 edge_30_17_0_0
   - 0.087281396779742 edge_30_19_0_0 - 1.377090894606063 edge_30_21_0_0
   + 0.0550849857549876 edge_30_22_0_0 + 0.566189100033811 edge_30_24_0_0
   + 1.403078894182487 edge_30_26_0_0 + 0.024517262029335 edge_30_27_0_0
   + 0.2601267044539279 edge_30_28_0_0 + 2.597264090738568 edge_30_29_0_0
   + 1.580824780610293 edge_30_32_0_0 - 0.7730673871031696 edge_32_30_0_0
Subject To
 one_parent_1: edge_2_1_0_0 + edge_4_1_0_0 + edge_5_1_0_0 + edge_6_1_0_0
   + edge_8_1_0_0 + edge_10_1_0_0 + edge_15_1_0_0 + edge_27_1_0_0
   + edge_30_1_0_0 = 1
 consume_one_flow_unit_1: - flow_1_2_0_0 - flow_1_5_0_0 - flow_1_6_0_0
   + flow_2_1_0_0 + flow_4_1_0_0 + flow_5_1_0_0 + flow_6_1_0_0
   + flow_8_1_0_0 + flow_10_1_0_0 + flow_15_1_0_0 + flow_27_1_0_0
   + flow_30_1_0_0 = 1
 one_parent_2: edge_0_2_0_0 + edge_1_2_0_0 + edge_4_2_0_0 + edge_5_2_0_0
   + edge_6_2_0_0 + edge_8_2_0_0 + edge_10_2_0_0 + edge_15_2_0_0
   + edge_27_2_0_0 = 1
 consume_one_flow_unit_2: flow_0_2_0_0 + flow_1_2_0_0 - flow_2_1_0_0
   - flow_2_5_0_0 - flow_2_6_0_0 - flow_2_7_0_0 - flow_2_15_0_0
   - flow_2_27_0_0 - flow_2_30_0_0 + flow_4_2_0_0 + flow_5_2_0_0
   + flow_6_2_0_0 + flow_8_2_0_0 + flow_10_2_0_0 + flow_15_2_0_0
   + flow_27_2_0_0 = 1
 one_parent_3: = 1
 consume_one_flow_unit_3: = 1
 one_parent_4: edge_0_4_0_0 + edge_5_4_0_0 + edge_6_4_0_0 + edge_8_4_0_0
   + edge_10_4_0_0 + edge_14_4_0_0 + edge_15_4_0_0 + edge_18_4_0_0
   + edge_21_4_0_0 + edge_24_4_0_0 + edge_27_4_0_0 + edge_30_4_0_0 = 1
 consume_one_flow_unit_4: flow_0_4_0_0 - flow_4_1_0_0 - flow_4_2_0_0
   - flow_4_5_0_0 - flow_4_6_0_0 - flow_4_7_0_0 - flow_4_8_0_0
   - flow_4_10_0_0 - flow_4_14_0_0 - flow_4_15_0_0 - flow_4_16_0_0
   - flow_4_17_0_0 - flow_4_18_0_0 - flow_4_21_0_0 - flow_4_22_0_0
   - flow_4_23_0_0 - flow_4_24_0_0 - flow_4_26_0_0 - flow_4_27_0_0
   - flow_4_28_0_0 - flow_4_29_0_0 - flow_4_30_0_0 - flow_4_32_0_0
   + flow_5_4_0_0 + flow_6_4_0_0 + flow_8_4_0_0 + flow_10_4_0_0
   + flow_14_4_0_0 + flow_15_4_0_0 + flow_18_4_0_0 + flow_21_4_0_0
   + flow_24_4_0_0 + flow_27_4_0_0 + flow_30_4_0_0 = 1
 one_parent_5: edge_0_5_0_0 + edge_1_5_0_0 + edge_2_5_0_0 + edge_4_5_0_0
   + edge_6_5_0_0 + edge_8_5_0_0 + edge_10_5_0_0 + edge_14_5_0_0
   + edge_15_5_0_0 + edge_18_5_0_0 + edge_27_5_0_0 = 1
 consume_one_flow_unit_5: flow_0_5_0_0 + flow_1_5_0_0 + flow_2_5_0_0
   + flow_4_5_0_0 - flow_5_1_0_0 - flow_5_2_0_0 - flow_5_4_0_0
   - flow_5_6_0_0 - flow_5_7_0_0 - flow_5_8_0_0 - flow_5_10_0_0
   - flow_5_18_0_0 + flow_6_5_0_0 + flow_8_5_0_0 + flow_10_5_0_0
   + flow_14_5_0_0 + flow_15_5_0_0 + flow_18_5_0_0 + flow_27_5_0_0 = 1
 one_parent_6: edge_0_6_0_0 + edge_1_6_0_0 + edge_2_6_0_0 + edge_4_6_0_0
   + edge_5_6_0_0 + edge_8_6_0_0 + edge_10_6_0_0 + edge_14_6_0_0
   + edge_15_6_0_0 + edge_18_6_0_0 + edge_27_6_0_0 = 1
 consume_one_flow_unit_6: flow_0_6_0_0 + flow_1_6_0_0 + flow_2_6_0_0
   + flow_4_6_0_0 + flow_5_6_0_0 - flow_6_1_0_0 - flow_6_2_0_0
   - flow_6_4_0_0 - flow_6_5_0_0 - flow_6_7_0_0 - flow_6_8_0_0
   - flow_6_10_0_0 - flow_6_14_0_0 - flow_6_15_0_0 - flow_6_18_0_0
   - flow_6_19_0_0 - flow_6_22_0_0 - flow_6_23_0_0 - flow_6_27_0_0
   - flow_6_30_0_0 - flow_6_32_0_0 + flow_8_6_0_0 + flow_10_6_0_0
   + flow_14_6_0_0 + flow_15_6_0_0 + flow_18_6_0_0 + flow_27_6_0_0 = 1
 one_parent_7: edge_2_7_0_0 + edge_4_7_0_0 + edge_5_7_0_0 + edge_6_7_0_0
   + edge_8_7_0_0 + edge_10_7_0_0 + edge_15_7_0_0 + edge_27_7_0_0
   + edge_30_7_0_0 = 1
 consume_one_flow_unit_7: flow_2_7_0_0 + flow_4_7_0_0 + flow_5_7_0_0
   + flow_6_7_0_0 - flow_7_8_0_0 + flow_8_7_0_0 + flow_10_7_0_0
   + flow_15_7_0_0 + flow_27_7_0_0 + flow_30_7_0_0 = 1
 one_parent_8: edge_0_8_0_0 + edge_4_8_0_0 + edge_5_8_0_0 + edge_6_8_0_0
   + edge_7_8_0_0 + edge_8_8_0_0 + edge_10_8_0_0 + edge_14_8_0_0
   + edge_15_8_0_0 + edge_18_8_0_0 + edge_21_8_0_0 + edge_27_8_0_0
   + edge_30_8_0_0 = 1
 consume_one_flow_unit_8: flow_0_8_0_0 + flow_4_8_0_0 + flow_5_8_0_0
   + flow_6_8_0_0 + flow_7_8_0_0 - flow_8_1_0_0 - flow_8_2_0_0
   - flow_8_4_0_0 - flow_8_5_0_0 - flow_8_6_0_0 - flow_8_7_0_0
   - flow_8_10_0_0 - flow_8_14_0_0 - flow_8_16_0_0 - flow_8_18_0_0
   - flow_8_22_0_0 - flow_8_23_0_0 + flow_10_8_0_0 + flow_14_8_0_0
   + flow_15_8_0_0 + flow_18_8_0_0 + flow_21_8_0_0 + flow_27_8_0_0
   + flow_30_8_0_0 = 1
 one_parent_9: = 1
 consume_one_flow_unit_9: = 1
 one_parent_10: edge_0_10_0_0 + edge_4_10_0_0 + edge_5_10_0_0
   + edge_6_10_0_0 + edge_8_10_0_0 + edge_14_10_0_0 + edge_15_10_0_0
   + edge_18_10_0_0 + edge_21_10_0_0 + edge_27_10_0_0 + edge_30_10_0_0 = 1
 consume_one_flow_unit_10: flow_0_10_0_0 + flow_4_10_0_0 + flow_5_10_0_0
   + flow_6_10_0_0 + flow_8_10_0_0 - flow_10_1_0_0 - flow_10_2_0_0
   - flow_10_4_0_0 - flow_10_5_0_0 - flow_10_6_0_0 - flow_10_7_0_0
   - flow_10_8_0_0 - flow_10_14_0_0 - flow_10_15_0_0 - flow_10_18_0_0
   - flow_10_19_0_0 - flow_10_21_0_0 - flow_10_22_0_0 - flow_10_23_0_0
   - flow_10_27_0_0 - flow_10_30_0_0 - flow_10_32_0_0 + flow_14_10_0_0
   + flow_15_10_0_0 + flow_18_10_0_0 + flow_21_10_0_0 + flow_27_10_0_0
   + flow_30_10_0_0 = 1
 one_parent_11: = 1
 consume_one_flow_unit_11: = 1
 one_parent_12: = 1
 consume_one_flow_unit_12: = 1
 one_parent_13: = 1
 consume_one_flow_unit_13: = 1
 one_parent_14: edge_4_14_0_0 + edge_6_14_0_0 + edge_8_14_0_0
   + edge_10_14_0_0 + edge_18_14_0_0 + edge_30_14_0_0 = 1
 consume_one_flow_unit_14: flow_4_14_0_0 + flow_6_14_0_0 + flow_8_14_0_0
   + flow_10_14_0_0 - flow_14_4_0_0 - flow_14_5_0_0 - flow_14_6_0_0
   - flow_14_8_0_0 - flow_14_10_0_0 - flow_14_18_0_0 - flow_14_19_0_0
   - flow_14_22_0_0 - flow_14_23_0_0 - flow_14_30_0_0 - flow_14_32_0_0
   + flow_18_14_0_0 + flow_30_14_0_0 = 1
 one_parent_15: edge_0_15_0_0 + edge_2_15_0_0 + edge_4_15_0_0
   + edge_6_15_0_0 + edge_10_15_0_0 + edge_21_15_0_0 + edge_24_15_0_0
   + edge_27_15_0_0 + edge_30_15_0_0 = 1
 consume_one_flow_unit_15: flow_0_15_0_0 + flow_2_15_0_0 + flow_4_15_0_0
   + flow_6_15_0_0 + flow_10_15_0_0 - flow_15_1_0_0 - flow_15_2_0_0
   - flow_15_4_0_0 - flow_15_5_0_0 - flow_15_6_0_0 - flow_15_7_0_0
   - flow_15_8_0_0 - flow_15_10_0_0 - flow_15_16_0_0 - flow_15_17_0_0
   - flow_15_21_0_0 - flow_15_22_0_0 - flow_15_24_0_0 - flow_15_26_0_0
   - flow_15_27_0_0 - flow_15_28_0_0 - flow_15_29_0_0 - flow_15_30_0_0
   - flow_15_32_0_0 + flow_21_15_0_0 + flow_24_15_0_0 + flow_27_15_0_0
   + flow_30_15_0_0 = 1
 one_parent_16: edge_4_16_0_0 + edge_8_16_0_0 + edge_15_16_0_0
   + edge_17_16_0_0 + edge_21_16_0_0 + edge_24_16_0_0 + edge_27_16_0_0
   + edge_28_16_0_0 + edge_30_16_0_0 = 1
 consume_one_flow_unit_16: flow_4_16_0_0 + flow_8_16_0_0 + flow_15_16_0_0
   - flow_16_17_0_0 - flow_16_21_0_0 - flow_16_22_0_0 - flow_16_24_0_0
   - flow_16_26_0_0 + flow_17_16_0_0 + flow_21_16_0_0 + flow_24_16_0_0
   + flow_27_16_0_0 + flow_28_16_0_0 + flow_30_16_0_0 = 1
 one_parent_17: edge_4_17_0_0 + edge_15_17_0_0 + edge_16_17_0_0
   + edge_21_17_0_0 + edge_22_17_0_0 + edge_24_17_0_0 + edge_27_17_0_0
   + edge_28_17_0_0 + edge_30_17_0_0 = 1
 consume_one_flow_unit_17: flow_4_17_0_0 + flow_15_17_0_0 + flow_16_17_0_0
   - flow_17_16_0_0 + flow_21_17_0_0 + flow_22_17_0_0 + flow_24_17_0_0
   + flow_27_17_0_0 + flow_28_17_0_0 + flow_30_17_0_0 = 1
 one_parent_18: edge_0_18_0_0 + edge_4_18_0_0 + edge_5_18_0_0
   + edge_6_18_0_0 + edge_8_18_0_0 + edge_10_18_0_0 + edge_14_18_0_0 = 1
 consume_one_flow_unit_18: flow_0_18_0_0 + flow_4_18_0_0 + flow_5_18_0_0
   + flow_6_18_0_0 + flow_8_18_0_0 + flow_10_18_0_0 + flow_14_18_0_0
   - flow_18_4_0_0 - flow_18_5_0_0 - flow_18_6_0_0 - flow_18_8_0_0
   - flow_18_10_0_0 - flow_18_14_0_0 - flow_18_19_0_0 - flow_18_22_0_0
   - flow_18_23_0_0 - flow_18_29_0_0 - flow_18_30_0_0 - flow_18_32_0_0 = 1
 one_parent_19: edge_6_19_0_0 + edge_10_19_0_0 + edge_14_19_0_0
   + edge_18_19_0_0 + edge_23_19_0_0 + edge_30_19_0_0 = 1
 consume_one_flow_unit_19: flow_6_19_0_0 + flow_10_19_0_0 + flow_14_19_0_0
   + flow_18_19_0_0 - flow_19_23_0_0 + flow_23_19_0_0 + flow_30_19_0_0 = 1
 one_parent_20: = 1
 consume_one_flow_unit_20: = 1
 one_parent_21: edge_0_21_0_0 + edge_4_21_0_0 + edge_10_21_0_0
   + edge_15_21_0_0 + edge_16_21_0_0 + edge_22_21_0_0 + edge_24_21_0_0
   + edge_27_21_0_0 + edge_30_21_0_0 = 1
 consume_one_flow_unit_21: flow_0_21_0_0 + flow_4_21_0_0 + flow_10_21_0_0
   + flow_15_21_0_0 + flow_16_21_0_0 - flow_21_4_0_0 - flow_21_8_0_0
   - flow_21_10_0_0 - flow_21_15_0_0 - flow_21_16_0_0 - flow_21_17_0_0
   - flow_21_22_0_0 - flow_21_24_0_0 - flow_21_26_0_0 - flow_21_27_0_0
   - flow_21_28_0_0 - flow_21_29_0_0 - flow_21_30_0_0 - flow_21_32_0_0
   + flow_22_21_0_0 + flow_24_21_0_0 + flow_27_21_0_0 + flow_30_21_0_0 = 1
 one_parent_22: edge_4_22_0_0 + edge_6_22_0_0 + edge_8_22_0_0
   + edge_10_22_0_0 + edge_14_22_0_0 + edge_15_22_0_0 + edge_16_22_0_0
   + edge_18_22_0_0 + edge_21_22_0_0 + edge_24_22_0_0 + edge_27_22_0_0
   + edge_30_22_0_0 = 1
 consume_one_flow_unit_22: flow_4_22_0_0 + flow_6_22_0_0 + flow_8_22_0_0
   + flow_10_22_0_0 + flow_14_22_0_0 + flow_15_22_0_0 + flow_16_22_0_0
   + flow_18_22_0_0 + flow_21_22_0_0 - flow_22_17_0_0 - flow_22_21_0_0
   - flow_22_24_0_0 - flow_22_26_0_0 + flow_24_22_0_0 + flow_27_22_0_0
   + flow_30_22_0_0 = 1
 one_parent_23: edge_4_23_0_0 + edge_6_23_0_0 + edge_8_23_0_0
   + edge_10_23_0_0 + edge_14_23_0_0 + edge_18_23_0_0 + edge_19_23_0_0 = 1
 consume_one_flow_unit_23: flow_4_23_0_0 + flow_6_23_0_0 + flow_8_23_0_0
   + flow_10_23_0_0 + flow_14_23_0_0 + flow_18_23_0_0 + flow_19_23_0_0
   - flow_23_19_0_0 = 1
 one_parent_24: edge_4_24_0_0 + edge_15_24_0_0 + edge_16_24_0_0
   + edge_21_24_0_0 + edge_22_24_0_0 + edge_26_24_0_0 + edge_27_24_0_0
   + edge_28_24_0_0 + edge_30_24_0_0 = 1
 consume_one_flow_unit_24: flow_4_24_0_0 + flow_15_24_0_0 + flow_16_24_0_0
   + flow_21_24_0_0 + flow_22_24_0_0 - flow_24_4_0_0 - flow_24_15_0_0
   - flow_24_16_0_0 - flow_24_17_0_0 - flow_24_21_0_0 - flow_24_22_0_0
   - flow_24_26_0_0 - flow_24_28_0_0 - flow_24_30_0_0 + flow_26_24_0_0
   + flow_27_24_0_0 + flow_28_24_0_0 + flow_30_24_0_0 = 1
 one_parent_25: = 1
 consume_one_flow_unit_25: = 1
 one_parent_26: edge_4_26_0_0 + edge_15_26_0_0 + edge_16_26_0_0
   + edge_21_26_0_0 + edge_22_26_0_0 + edge_24_26_0_0 + edge_27_26_0_0
   + edge_28_26_0_0 + edge_30_26_0_0 = 1
 consume_one_flow_unit_26: flow_4_26_0_0 + flow_15_26_0_0 + flow_16_26_0_0
   + flow_21_26_0_0 + flow_22_26_0_0 + flow_24_26_0_0 - flow_26_24_0_0
   - flow_26_28_0_0 + flow_27_26_0_0 + flow_28_26_0_0 + flow_30_26_0_0 = 1
 one_parent_27: edge_0_27_0_0 + edge_2_27_0_0 + edge_4_27_0_0
   + edge_6_27_0_0 + edge_10_27_0_0 + edge_15_27_0_0 + edge_21_27_0_0
   + edge_30_27_0_0 = 1
 consume_one_flow_unit_27: flow_0_27_0_0 + flow_2_27_0_0 + flow_4_27_0_0
   + flow_6_27_0_0 + flow_10_27_0_0 + flow_15_27_0_0 + flow_21_27_0_0
   - flow_27_1_0_0 - flow_27_2_0_0 - flow_27_4_0_0 - flow_27_5_0_0
   - flow_27_6_0_0 - flow_27_7_0_0 - flow_27_8_0_0 - flow_27_10_0_0
   - flow_27_15_0_0 - flow_27_16_0_0 - flow_27_17_0_0 - flow_27_21_0_0
   - flow_27_22_0_0 - flow_27_24_0_0 - flow_27_26_0_0 - flow_27_28_0_0
   - flow_27_29_0_0 - flow_27_30_0_0 - flow_27_32_0_0 + flow_30_27_0_0 = 1
 one_parent_28: edge_4_28_0_0 + edge_15_28_0_0 + edge_21_28_0_0
   + edge_24_28_0_0 + edge_26_28_0_0 + edge_27_28_0_0 + edge_29_28_0_0
   + edge_30_28_0_0 = 1
 consume_one_flow_unit_28: flow_4_28_0_0 + flow_15_28_0_0 + flow_21_28_0_0
   + flow_24_28_0_0 + flow_26_28_0_0 + flow_27_28_0_0 - flow_28_16_0_0
   - flow_28_17_0_0 - flow_28_24_0_0 - flow_28_26_0_0 - flow_28_29_0_0
   - flow_28_30_0_0 + flow_29_28_0_0 + flow_30_28_0_0 = 1
 one_parent_29: edge_4_29_0_0 + edge_15_29_0_0 + edge_18_29_0_0
   + edge_21_29_0_0 + edge_27_29_0_0 + edge_28_29_0_0 + edge_30_29_0_0 = 1
 consume_one_flow_unit_29: flow_4_29_0_0 + flow_15_29_0_0 + flow_18_29_0_0
   + flow_21_29_0_0 + flow_27_29_0_0 + flow_28_29_0_0 - flow_29_28_0_0
   - flow_29_32_0_0 + flow_30_29_0_0 = 1
 one_parent_30: edge_2_30_0_0 + edge_4_30_0_0 + edge_6_30_0_0
   + edge_10_30_0_0 + edge_14_30_0_0 + edge_15_30_0_0 + edge_18_30_0_0
   + edge_21_30_0_0 + edge_24_30_0_0 + edge_27_30_0_0 + edge_28_30_0_0
   + edge_32_30_0_0 = 1
 consume_one_flow_unit_30: flow_2_30_0_0 + flow_4_30_0_0 + flow_6_30_0_0
   + flow_10_30_0_0 + flow_14_30_0_0 + flow_15_30_0_0 + flow_18_30_0_0
   + flow_21_30_0_0 + flow_24_30_0_0 + flow_27_30_0_0 + flow_28_30_0_0
   - flow_30_1_0_0 - flow_30_4_0_0 - flow_30_7_0_0 - flow_30_8_0_0
   - flow_30_10_0_0 - flow_30_14_0_0 - flow_30_15_0_0 - flow_30_16_0_0
   - flow_30_17_0_0 - flow_30_19_0_0 - flow_30_21_0_0 - flow_30_22_0_0
   - flow_30_24_0_0 - flow_30_26_0_0 - flow_30_27_0_0 - flow_30_28_0_0
   - flow_30_29_0_0 - flow_30_32_0_0 + flow_32_30_0_0 = 1
 one_parent_31: = 1
 consume_one_flow_unit_31: = 1
 one_parent_32: edge_4_32_0_0 + edge_6_32_0_0 + edge_10_32_0_0
   + edge_14_32_0_0 + edge_15_32_0_0 + edge_18_32_0_0 + edge_21_32_0_0
   + edge_27_32_0_0 + edge_29_32_0_0 + edge_30_32_0_0 = 1
 consume_one_flow_unit_32: flow_4_32_0_0 + flow_6_32_0_0 + flow_10_32_0_0
   + flow_14_32_0_0 + flow_15_32_0_0 + flow_18_32_0_0 + flow_21_32_0_0
   + flow_27_32_0_0 + flow_29_32_0_0 + flow_30_32_0_0 - flow_32_30_0_0 = 1
 root_flow: flow_0_2_0_0 + flow_0_4_0_0 + flow_0_5_0_0 + flow_0_6_0_0
   + flow_0_8_0_0 + flow_0_10_0_0 + flow_0_15_0_0 + flow_0_18_0_0
   + flow_0_21_0_0 + flow_0_27_0_0 = 32
 inactive_no_flow_0_2_0_0: flow_0_2_0_0 - 1000 edge_0_2_0_0 <= 0
 inactive_no_flow_0_4_0_0: flow_0_4_0_0 - 1000 edge_0_4_0_0 <= 0
 inactive_no_flow_0_5_0_0: flow_0_5_0_0 - 1000 edge_0_5_0_0 <= 0
 inactive_no_flow_0_6_0_0: flow_0_6_0_0 - 1000 edge_0_6_0_0 <= 0
 inactive_no_flow_0_8_0_0: flow_0_8_0_0 - 1000 edge_0_8_0_0 <= 0
 inactive_no_flow_0_10_0_0: flow_0_10_0_0 - 1000 edge_0_10_0_0 <= 0
 inactive_no_flow_0_15_0_0: flow_0_15_0_0 - 1000 edge_0_15_0_0 <= 0
 inactive_no_flow_0_18_0_0: flow_0_18_0_0 - 1000 edge_0_18_0_0 <= 0
 inactive_no_flow_0_21_0_0: flow_0_21_0_0 - 1000 edge_0_21_0_0 <= 0
 inactive_no_flow_0_27_0_0: flow_0_27_0_0 - 1000 edge_0_27_0_0 <= 0
 inactive_no_flow_1_2_0_0: flow_1_2_0_0 - 1000 edge_1_2_0_0 <= 0
 inactive_no_flow_1_5_0_0: flow_1_5_0_0 - 1000 edge_1_5_0_0 <= 0
 inactive_no_flow_1_6_0_0: flow_1_6_0_0 - 1000 edge_1_6_0_0 <= 0
 inactive_no_flow_2_1_0_0: flow_2_1_0_0 - 1000 edge_2_1_0_0 <= 0
 inactive_no_flow_2_5_0_0: flow_2_5_0_0 - 1000 edge_2_5_0_0 <= 0
 inactive_no_flow_2_6_0_0: flow_2_6_0_0 - 1000 edge_2_6_0_0 <= 0
 inactive_no_flow_2_7_0_0: flow_2_7_0_0 - 1000 edge_2_7_0_0 <= 0
 inactive_no_flow_2_15_0_0: flow_2_15_0_0 - 1000 edge_2_15_0_0 <= 0
 inactive_no_flow_2_27_0_0: flow_2_27_0_0 - 1000 edge_2_27_0_0 <= 0
 inactive_no_flow_2_30_0_0: flow_2_30_0_0 - 1000 edge_2_30_0_0 <= 0
 inactive_no_flow_4_1_0_0: flow_4_1_0_0 - 1000 edge_4_1_0_0 <= 0
 inactive_no_flow_4_2_0_0: flow_4_2_0_0 - 1000 edge_4_2_0_0 <= 0
 inactive_no_flow_4_5_0_0: flow_4_5_0_0 - 1000 edge_4_5_0_0 <= 0
 inactive_no_flow_4_6_0_0: flow_4_6_0_0 - 1000 edge_4_6_0_0 <= 0
 inactive_no_flow_4_7_0_0: flow_4_7_0_0 - 1000 edge_4_7_0_0 <= 0
 inactive_no_flow_4_8_0_0: flow_4_8_0_0 - 1000 edge_4_8_0_0 <= 0
 inactive_no_flow_4_10_0_0: flow_4_10_0_0 - 1000 edge_4_10_0_0 <= 0
 inactive_no_flow_4_14_0_0: flow_4_14_0_0 - 1000 edge_4_14_0_0 <= 0
 inactive_no_flow_4_15_0_0: flow_4_15_0_0 - 1000 edge_4_15_0_0 <= 0
 inactive_no_flow_4_16_0_0: flow_4_16_0_0 - 1000 edge_4_16_0_0 <= 0
 inactive_no_flow_4_17_0_0: flow_4_17_0_0 - 1000 edge_4_17_0_0 <= 0
 inactive_no_flow_4_18_0_0: flow_4_18_0_0 - 1000 edge_4_18_0_0 <= 0
 inactive_no_flow_4_21_0_0: flow_4_21_0_0 - 1000 edge_4_21_0_0 <= 0
 inactive_no_flow_4_22_0_0: flow_4_22_0_0 - 1000 edge_4_22_0_0 <= 0
 inactive_no_flow_4_23_0_0: flow_4_23_0_0 - 1000 edge_4_23_0_0 <= 0
 inactive_no_flow_4_24_0_0: flow_4_24_0_0 - 1000 edge_4_24_0_0 <= 0
 inactive_no_flow_4_26_0_0: flow_4_26_0_0 - 1000 edge_4_26_0_0 <= 0
 inactive_no_flow_4_27_0_0: flow_4_27_0_0 - 1000 edge_4_27_0_0 <= 0
 inactive_no_flow_4_28_0_0: flow_4_28_0_0 - 1000 edge_4_28_0_0 <= 0
 inactive_no_flow_4_29_0_0: flow_4_29_0_0 - 1000 edge_4_29_0_0 <= 0
 inactive_no_flow_4_30_0_0: flow_4_30_0_0 - 1000 edge_4_30_0_0 <= 0
 inactive_no_flow_4_32_0_0: flow_4_32_0_0 - 1000 edge_4_32_0_0 <= 0
 inactive_no_flow_5_1_0_0: flow_5_1_0_0 - 1000 edge_5_1_0_0 <= 0
 inactive_no_flow_5_2_0_0: flow_5_2_0_0 - 1000 edge_5_2_0_0 <= 0
 inactive_no_flow_5_4_0_0: flow_5_4_0_0 - 1000 edge_5_4_0_0 <= 0
 inactive_no_flow_5_6_0_0: flow_5_6_0_0 - 1000 edge_5_6_0_0 <= 0
 inactive_no_flow_5_7_0_0: flow_5_7_0_0 - 1000 edge_5_7_0_0 <= 0
 inactive_no_flow_5_8_0_0: flow_5_8_0_0 - 1000 edge_5_8_0_0 <= 0
 inactive_no_flow_5_10_0_0: flow_5_10_0_0 - 1000 edge_5_10_0_0 <= 0
 inactive_no_flow_5_18_0_0: flow_5_18_0_0 - 1000 edge_5_18_0_0 <= 0
 inactive_no_flow_6_1_0_0: flow_6_1_0_0 - 1000 edge_6_1_0_0 <= 0
 inactive_no_flow_6_2_0_0: flow_6_2_0_0 - 1000 edge_6_2_0_0 <= 0
 inactive_no_flow_6_4_0_0: flow_6_4_0_0 - 1000 edge_6_4_0_0 <= 0
 inactive_no_flow_6_5_0_0: flow_6_5_0_0 - 1000 edge_6_5_0_0 <= 0
 inactive_no_flow_6_7_0_0: flow_6_7_0_0 - 1000 edge_6_7_0_0 <= 0
 inactive_no_flow_6_8_0_0: flow_6_8_0_0 - 1000 edge_6_8_0_0 <= 0
 inactive_no_flow_6_10_0_0: flow_6_10_0_0 - 1000 edge_6_10_0_0 <= 0
 inactive_no_flow_6_14_0_0: flow_6_14_0_0 - 1000 edge_6_14_0_0 <= 0
 inactive_no_flow_6_15_0_0: flow_6_15_0_0 - 1000 edge_6_15_0_0 <= 0
 inactive_no_flow_6_18_0_0: flow_6_18_0_0 - 1000 edge_6_18_0_0 <= 0
 inactive_no_flow_6_19_0_0: flow_6_19_0_0 - 1000 edge_6_19_0_0 <= 0
 inactive_no_flow_6_22_0_0: flow_6_22_0_0 - 1000 edge_6_22_0_0 <= 0
 inactive_no_flow_6_23_0_0: flow_6_23_0_0 - 1000 edge_6_23_0_0 <= 0
 inactive_no_flow_6_27_0_0: flow_6_27_0_0 - 1000 edge_6_27_0_0 <= 0
 inactive_no_flow_6_30_0_0: flow_6_30_0_0 - 1000 edge_6_30_0_0 <= 0
 inactive_no_flow_6_32_0_0: flow_6_32_0_0 - 1000 edge_6_32_0_0 <= 0
 inactive_no_flow_7_8_0_0: flow_7_8_0_0 - 1000 edge_7_8_0_0 <= 0
 inactive_no_flow_8_1_0_0: flow_8_1_0_0 - 1000 edge_8_1_0_0 <= 0
 inactive_no_flow_8_2_0_0: flow_8_2_0_0 - 1000 edge_8_2_0_0 <= 0
 inactive_no_flow_8_4_0_0: flow_8_4_0_0 - 1000 edge_8_4_0_0 <= 0
 inactive_no_flow_8_5_0_0: flow_8_5_0_0 - 1000 edge_8_5_0_0 <= 0
 inactive_no_flow_8_6_0_0: flow_8_6_0_0 - 1000 edge_8_6_0_0 <= 0
 inactive_no_flow_8_7_0_0: flow_8_7_0_0 - 1000 edge_8_7_0_0 <= 0
 inactive_no_flow_8_8_0_0: flow_8_8_0_0 - 1000 edge_8_8_0_0 <= 0
 inactive_no_flow_8_10_0_0: flow_8_10_0_0 - 1000 edge_8_10_0_0 <= 0
 inactive_no_flow_8_14_0_0: flow_8_14_0_0 - 1000 edge_8_14_0_0 <= 0
 inactive_no_flow_8_16_0_0: flow_8_16_0_0 - 1000 edge_8_16_0_0 <= 0
 inactive_no_flow_8_18_0_0: flow_8_18_0_0 - 1000 edge_8_18_0_0 <= 0
 inactive_no_flow_8_22_0_0: flow_8_22_0_0 - 1000 edge_8_22_0_0 <= 0
 inactive_no_flow_8_23_0_0: flow_8_23_0_0 - 1000 edge_8_23_0_0 <= 0
 inactive_no_flow_10_1_0_0: flow_10_1_0_0 - 1000 edge_10_1_0_0 <= 0
 inactive_no_flow_10_2_0_0: flow_10_2_0_0 - 1000 edge_10_2_0_0 <= 0
 inactive_no_flow_10_4_0_0: flow_10_4_0_0 - 1000 edge_10_4_0_0 <= 0
 inactive_no_flow_10_5_0_0: flow_10_5_0_0 - 1000 edge_10_5_0_0 <= 0
 inactive_no_flow_10_6_0_0: flow_10_6_0_0 - 1000 edge_10_6_0_0 <= 0
 inactive_no_flow_10_7_0_0: flow_10_7_0_0 - 1000 edge_10_7_0_0 <= 0
 inactive_no_flow_10_8_0_0: flow_10_8_0_0 - 1000 edge_10_8_0_0 <= 0
 inactive_no_flow_10_14_0_0: flow_10_14_0_0 - 1000 edge_10_14_0_0 <= 0
 inactive_no_flow_10_15_0_0: flow_10_15_0_0 - 1000 edge_10_15_0_0 <= 0
 inactive_no_flow_10_18_0_0: flow_10_18_0_0 - 1000 edge_10_18_0_0 <= 0
 inactive_no_flow_10_19_0_0: flow_10_19_0_0 - 1000 edge_10_19_0_0 <= 0
 inactive_no_flow_10_21_0_0: flow_10_21_0_0 - 1000 edge_10_21_0_0 <= 0
 inactive_no_flow_10_22_0_0: flow_10_22_0_0 - 1000 edge_10_22_0_0 <= 0
 inactive_no_flow_10_23_0_0: flow_10_23_0_0 - 1000 edge_10_23_0_0 <= 0
 inactive_no_flow_10_27_0_0: flow_10_27_0_0 - 1000 edge_10_27_0_0 <= 0
 inactive_no_flow_10_30_0_0: flow_10_30_0_0 - 1000 edge_10_30_0_0 <= 0
 inactive_no_flow_10_32_0_0: flow_10_32_0_0 - 1000 edge_10_32_0_0 <= 0
 inactive_no_flow_14_4_0_0: flow_14_4_0_0 - 1000 edge_14_4_0_0 <= 0
 inactive_no_flow_14_5_0_0: flow_14_5_0_0 - 1000 edge_14_5_0_0 <= 0
 inactive_no_flow_14_6_0_0: flow_14_6_0_0 - 1000 edge_14_6_0_0 <= 0
 inactive_no_flow_14_8_0_0: flow_14_8_0_0 - 1000 edge_14_8_0_0 <= 0
 inactive_no_flow_14_10_0_0: flow_14_10_0_0 - 1000 edge_14_10_0_0 <= 0
 inactive_no_flow_14_18_0_0: flow_14_18_0_0 - 1000 edge_14_18_0_0 <= 0
 inactive_no_flow_14_19_0_0: flow_14_19_0_0 - 1000 edge_14_19_0_0 <= 0
 inactive_no_flow_14_22_0_0: flow_14_22_0_0 - 1000 edge_14_22_0_0 <= 0
 inactive_no_flow_14_23_0_0: flow_14_23_0_0 - 1000 edge_14_23_0_0 <= 0
 inactive_no_flow_14_30_0_0: flow_14_30_0_0 - 1000 edge_14_30_0_0 <= 0
 inactive_no_flow_14_32_0_0: flow_14_32_0_0 - 1000 edge_14_32_0_0 <= 0
 inactive_no_flow_15_1_0_0: flow_15_1_0_0 - 1000 edge_15_1_0_0 <= 0
 inactive_no_flow_15_2_0_0: flow_15_2_0_0 - 1000 edge_15_2_0_0 <= 0
 inactive_no_flow_15_4_0_0: flow_15_4_0_0 - 1000 edge_15_4_0_0 <= 0
 inactive_no_flow_15_5_0_0: flow_15_5_0_0 - 1000 edge_15_5_0_0 <= 0
 inactive_no_flow_15_6_0_0: flow_15_6_0_0 - 1000 edge_15_6_0_0 <= 0
 inactive_no_flow_15_7_0_0: flow_15_7_0_0 - 1000 edge_15_7_0_0 <= 0
 inactive_no_flow_15_8_0_0: flow_15_8_0_0 - 1000 edge_15_8_0_0 <= 0
 inactive_no_flow_15_10_0_0: flow_15_10_0_0 - 1000 edge_15_10_0_0 <= 0
 inactive_no_flow_15_16_0_0: flow_15_16_0_0 - 1000 edge_15_16_0_0 <= 0
 inactive_no_flow_15_17_0_0: flow_15_17_0_0 - 1000 edge_15_17_0_0 <= 0
 inactive_no_flow_15_21_0_0: flow_15_21_0_0 - 1000 edge_15_21_0_0 <= 0
 inactive_no_flow_15_22_0_0: flow_15_22_0_0 - 1000 edge_15_22_0_0 <= 0
 inactive_no_flow_15_24_0_0: flow_15_24_0_0 - 1000 edge_15_24_0_0 <= 0
 inactive_no_flow_15_26_0_0: flow_15_26_0_0 - 1000 edge_15_26_0_0 <= 0
 inactive_no_flow_15_27_0_0: flow_15_27_0_0 - 1000 edge_15_27_0_0 <= 0
 inactive_no_flow_15_28_0_0: flow_15_28_0_0 - 1000 edge_15_28_0_0 <= 0
 inactive_no_flow_15_29_0_0: flow_15_29_0_0 - 1000 edge_15_29_0_0 <= 0
 inactive_no_flow_15_30_0_0: flow_15_30_0_0 - 1000 edge_15_30_0_0 <= 0
 inactive_no_flow_15_32_0_0: flow_15_32_0_0 - 1000 edge_15_32_0_0 <= 0
 inactive_no_flow_16_17_0_0: flow_16_17_0_0 - 1000 edge_16_17_0_0 <= 0
 inactive_no_flow_16_21_0_0: flow_16_21_0_0 - 1000 edge_16_21_0_0 <= 0
 inactive_no_flow_16_22_0_0: flow_16_22_0_0 - 1000 edge_16_22_0_0 <= 0
 inactive_no_flow_16_24_0_0: flow_16_24_0_0 - 1000 edge_16_24_0_0 <= 0
 inactive_no_flow_16_26_0_0: flow_16_26_0_0 - 1000 edge_16_26_0_0 <= 0
 inactive_no_flow_17_16_0_0: flow_17_16_0_0 - 1000 edge_17_16_0_0 <= 0
 inactive_no_flow_18_4_0_0: flow_18_4_0_0 - 1000 edge_18_4_0_0 <= 0
 inactive_no_flow_18_5_0_0: flow_18_5_0_0 - 1000 edge_18_5_0_0 <= 0
 inactive_no_flow_18_6_0_0: flow_18_6_0_0 - 1000 edge_18_6_0_0 <= 0
 inactive_no_flow_18_8_0_0: flow_18_8_0_0 - 1000 edge_18_8_0_0 <= 0
 inactive_no_flow_18_10_0_0: flow_18_10_0_0 - 1000 edge_18_10_0_0 <= 0
 inactive_no_flow_18_14_0_0: flow_18_14_0_0 - 1000 edge_18_14_0_0 <= 0
 inactive_no_flow_18_19_0_0: flow_18_19_0_0 - 1000 edge_18_19_0_0 <= 0
 inactive_no_flow_18_22_0_0: flow_18_22_0_0 - 1000 edge_18_22_0_0 <= 0
 inactive_no_flow_18_23_0_0: flow_18_23_0_0 - 1000 edge_18_23_0_0 <= 0
 inactive_no_flow_18_29_0_0: flow_18_29_0_0 - 1000 edge_18_29_0_0 <= 0
 inactive_no_flow_18_30_0_0: flow_18_30_0_0 - 1000 edge_18_30_0_0 <= 0
 inactive_no_flow_18_32_0_0: flow_18_32_0_0 - 1000 edge_18_32_0_0 <= 0
 inactive_no_flow_19_23_0_0: flow_19_23_0_0 - 1000 edge_19_23_0_0 <= 0
 inactive_no_flow_21_4_0_0: flow_21_4_0_0 - 1000 edge_21_4_0_0 <= 0
 inactive_no_flow_21_8_0_0: flow_21_8_0_0 - 1000 edge_21_8_0_0 <= 0
 inactive_no_flow_21_10_0_0: flow_21_10_0_0 - 1000 edge_21_10_0_0 <= 0
 inactive_no_flow_21_15_0_0: flow_21_15_0_0 - 1000 edge_21_15_0_0 <= 0
 inactive_no_flow_21_16_0_0: flow_21_16_0_0 - 1000 edge_21_16_0_0 <= 0
 inactive_no_flow_21_17_0_0: flow_21_17_0_0 - 1000 edge_21_17_0_0 <= 0
 inactive_no_flow_21_22_0_0: flow_21_22_0_0 - 1000 edge_21_22_0_0 <= 0
 inactive_no_flow_21_24_0_0: flow_21_24_0_0 - 1000 edge_21_24_0_0 <= 0
 inactive_no_flow_21_26_0_0: flow_21_26_0_0 - 1000 edge_21_26_0_0 <= 0
 inactive_no_flow_21_27_0_0: flow_21_27_0_0 - 1000 edge_21_27_0_0 <= 0
 inactive_no_flow_21_28_0_0: flow_21_28_0_0 - 1000 edge_21_28_0_0 <= 0
 inactive_no_flow_21_29_0_0: flow_21_29_0_0 - 1000 edge_21_29_0_0 <= 0
 inactive_no_flow_21_30_0_0: flow_21_30_0_0 - 1000 edge_21_30_0_0 <= 0
 inactive_no_flow_21_32_0_0: flow_21_32_0_0 - 1000 edge_21_32_0_0 <= 0
 inactive_no_flow_22_17_0_0: flow_22_17_0_0 - 1000 edge_22_17_0_0 <= 0
 inactive_no_flow_22_21_0_0: flow_22_21_0_0 - 1000 edge_22_21_0_0 <= 0
 inactive_no_flow_22_24_0_0: flow_22_24_0_0 - 1000 edge_22_24_0_0 <= 0
 inactive_no_flow_22_26_0_0: flow_22_26_0_0 - 1000 edge_22_26_0_0 <= 0
 inactive_no_flow_23_19_0_0: flow_23_19_0_0 - 1000 edge_23_19_0_0 <= 0
 inactive_no_flow_24_4_0_0: flow_24_4_0_0 - 1000 edge_24_4_0_0 <= 0
 inactive_no_flow_24_15_0_0: flow_24_15_0_0 - 1000 edge_24_15_0_0 <= 0
 inactive_no_flow_24_16_0_0: flow_24_16_0_0 - 1000 edge_24_16_0_0 <= 0
 inactive_no_flow_24_17_0_0: flow_24_17_0_0 - 1000 edge_24_17_0_0 <= 0
 inactive_no_flow_24_21_0_0: flow_24_21_0_0 - 1000 edge_24_21_0_0 <= 0
 inactive_no_flow_24_22_0_0: flow_24_22_0_0 - 1000 edge_24_22_0_0 <= 0
 inactive_no_flow_24_26_0_0: flow_24_26_0_0 - 1000 edge_24_26_0_0 <= 0
 inactive_no_flow_24_28_0_0: flow_24_28_0_0 - 1000 edge_24_28_0_0 <= 0
 inactive_no_flow_24_30_0_0: flow_24_30_0_0 - 1000 edge_24_30_0_0 <= 0
 inactive_no_flow_26_24_0_0: flow_26_24_0_0 - 1000 edge_26_24_0_0 <= 0
 inactive_no_flow_26_28_0_0: flow_26_28_0_0 - 1000 edge_26_28_0_0 <= 0
 inactive_no_flow_27_1_0_0: flow_27_1_0_0 - 1000 edge_27_1_0_0 <= 0
 inactive_no_flow_27_2_0_0: flow_27_2_0_0 - 1000 edge_27_2_0_0 <= 0
 inactive_no_flow_27_4_0_0: flow_27_4_0_0 - 1000 edge_27_4_0_0 <= 0
 inactive_no_flow_27_5_0_0: flow_27_5_0_0 - 1000 edge_27_5_0_0 <= 0
 inactive_no_flow_27_6_0_0: flow_27_6_0_0 - 1000 edge_27_6_0_0 <= 0
 inactive_no_flow_27_7_0_0: flow_27_7_0_0 - 1000 edge_27_7_0_0 <= 0
 inactive_no_flow_27_8_0_0: flow_27_8_0_0 - 1000 edge_27_8_0_0 <= 0
 inactive_no_flow_27_10_0_0: flow_27_10_0_0 - 1000 edge_27_10_0_0 <= 0
 inactive_no_flow_27_15_0_0: flow_27_15_0_0 - 1000 edge_27_15_0_0 <= 0
 inactive_no_flow_27_16_0_0: flow_27_16_0_0 - 1000 edge_27_16_0_0 <= 0
 inactive_no_flow_27_17_0_0: flow_27_17_0_0 - 1000 edge_27_17_0_0 <= 0
 inactive_no_flow_27_21_0_0: flow_27_21_0_0 - 1000 edge_27_21_0_0 <= 0
 inactive_no_flow_27_22_0_0: flow_27_22_0_0 - 1000 edge_27_22_0_0 <= 0
 inactive_no_flow_27_24_0_0: flow_27_24_0_0 - 1000 edge_27_24_0_0 <= 0
 inactive_no_flow_27_26_0_0: flow_27_26_0_0 - 1000 edge_27_26_0_0 <= 0
 inactive_no_flow_27_28_0_0: flow_27_28_0_0 - 1000 edge_27_28_0_0 <= 0
 inactive_no_flow_27_29_0_0: flow_27_29_0_0 - 1000 edge_27_29_0_0 <= 0
 inactive_no_flow_27_30_0_0: flow_27_30_0_0 - 1000 edge_27_30_0_0 <= 0
 inactive_no_flow_27_32_0_0: flow_27_32_0_0 - 1000 edge_27_32_0_0 <= 0
 inactive_no_flow_28_16_0_0: flow_28_16_0_0 - 1000 edge_28_16_0_0 <= 0
 inactive_no_flow_28_17_0_0: flow_28_17_0_0 - 1000 edge_28_17_0_0 <= 0
 inactive_no_flow_28_24_0_0: flow_28_24_0_0 - 1000 edge_28_24_0_0 <= 0
 inactive_no_flow_28_26_0_0: flow_28_26_0_0 - 1000 edge_28_26_0_0 <= 0
 inactive_no_flow_28_29_0_0: flow_28_29_0_0 - 1000 edge_28_29_0_0 <= 0
 inactive_no_flow_28_30_0_0: flow_28_30_0_0 - 1000 edge_28_30_0_0 <= 0
 inactive_no_flow_29_28_0_0: flow_29_28_0_0 - 1000 edge_29_28_0_0 <= 0
 inactive_no_flow_29_32_0_0: flow_29_32_0_0 - 1000 edge_29_32_0_0 <= 0
 inactive_no_flow_30_1_0_0: flow_30_1_0_0 - 1000 edge_30_1_0_0 <= 0
 inactive_no_flow_30_4_0_0: flow_30_4_0_0 - 1000 edge_30_4_0_0 <= 0
 inactive_no_flow_30_7_0_0: flow_30_7_0_0 - 1000 edge_30_7_0_0 <= 0
 inactive_no_flow_30_8_0_0: flow_30_8_0_0 - 1000 edge_30_8_0_0 <= 0
 inactive_no_flow_30_10_0_0: flow_30_10_0_0 - 1000 edge_30_10_0_0 <= 0
 inactive_no_flow_30_14_0_0: flow_30_14_0_0 - 1000 edge_30_14_0_0 <= 0
 inactive_no_flow_30_15_0_0: flow_30_15_0_0 - 1000 edge_30_15_0_0 <= 0
 inactive_no_flow_30_16_0_0: flow_30_16_0_0 - 1000 edge_30_16_0_0 <= 0
 inactive_no_flow_30_17_0_0: flow_30_17_0_0 - 1000 edge_30_17_0_0 <= 0
 inactive_no_flow_30_19_0_0: flow_30_19_0_0 - 1000 edge_30_19_0_0 <= 0
 inactive_no_flow_30_21_0_0: flow_30_21_0_0 - 1000 edge_30_21_0_0 <= 0
 inactive_no_flow_30_22_0_0: flow_30_22_0_0 - 1000 edge_30_22_0_0 <= 0
 inactive_no_flow_30_24_0_0: flow_30_24_0_0 - 1000 edge_30_24_0_0 <= 0
 inactive_no_flow_30_26_0_0: flow_30_26_0_0 - 1000 edge_30_26_0_0 <= 0
 inactive_no_flow_30_27_0_0: flow_30_27_0_0 - 1000 edge_30_27_0_0 <= 0
 inactive_no_flow_30_28_0_0: flow_30_28_0_0 - 1000 edge_30_28_0_0 <= 0
 inactive_no_flow_30_29_0_0: flow_30_29_0_0 - 1000 edge_30_29_0_0 <= 0
 inactive_no_flow_30_32_0_0: flow_30_32_0_0 - 1000 edge_30_32_0_0 <= 0
 inactive_no_flow_32_30_0_0: flow_32_30_0_0 - 1000 edge_32_30_0_0 <= 0
Bounds
Binaries
 edge_0_2_0_0 edge_0_4_0_0 edge_0_5_0_0 edge_0_6_0_0 edge_0_8_0_0
 edge_0_10_0_0 edge_0_15_0_0 edge_0_18_0_0 edge_0_21_0_0 edge_0_27_0_0
 edge_1_2_0_0 edge_1_5_0_0 edge_1_6_0_0 edge_2_1_0_0 edge_2_5_0_0
 edge_2_6_0_0 edge_2_7_0_0 edge_2_15_0_0 edge_2_27_0_0 edge_2_30_0_0
 edge_4_1_0_0 edge_4_2_0_0 edge_4_5_0_0 edge_4_6_0_0 edge_4_7_0_0
 edge_4_8_0_0 edge_4_10_0_0 edge_4_14_0_0 edge_4_15_0_0 edge_4_16_0_0
 edge_4_17_0_0 edge_4_18_0_0 edge_4_21_0_0 edge_4_22_0_0 edge_4_23_0_0
 edge_4_24_0_0 edge_4_26_0_0 edge_4_27_0_0 edge_4_28_0_0 edge_4_29_0_0
 edge_4_30_0_0 edge_4_32_0_0 edge_5_1_0_0 edge_5_2_0_0 edge_5_4_0_0
 edge_5_6_0_0 edge_5_7_0_0 edge_5_8_0_0 edge_5_10_0_0 edge_5_18_0_0
 edge_6_1_0_0 edge_6_2_0_0 edge_6_4_0_0 edge_6_5_0_0 edge_6_7_0_0
 edge_6_8_0_0 edge_6_10_0_0 edge_6_14_0_0 edge_6_15_0_0 edge_6_18_0_0
 edge_6_19_0_0 edge_6_22_0_0 edge_6_23_0_0 edge_6_27_0_0 edge_6_30_0_0
 edge_6_32_0_0 edge_7_8_0_0 edge_8_1_0_0 edge_8_2_0_0 edge_8_4_0_0
 edge_8_5_0_0 edge_8_6_0_0 edge_8_7_0_0 edge_8_8_0_0 edge_8_10_0_0
 edge_8_14_0_0 edge_8_16_0_0 edge_8_18_0_0 edge_8_22_0_0 edge_8_23_0_0
 edge_10_1_0_0 edge_10_2_0_0 edge_10_4_0_0 edge_10_5_0_0 edge_10_6_0_0
 edge_10_7_0_0 edge_10_8_0_0 edge_10_14_0_0 edge_10_15_0_0 edge_10_18_0_0
 edge_10_19_0_0 edge_10_21_0_0 edge_10_22_0_0 edge_10_23_0_0 edge_10_27_0_0
 edge_10_30_0_0 edge_10_32_0_0 edge_14_4_0_0 edge_14_5_0_0 edge_14_6_0_0
 edge_14_8_0_0 edge_14_10_0_0 edge_14_18_0_0 edge_14_19_0_0 edge_14_22_0_0
 edge_14_23_0_0 edge_14_30_0_0 edge_14_32_0_0 edge_15_1_0_0 edge_15_2_0_0
 edge_15_4_0_0 edge_15_5_0_0 edge_15_6_0_0 edge_15_7_0_0 edge_15_8_0_0
 edge_15_10_0_0 edge_15_16_0_0 edge_15_17_0_0 edge_15_21_0_0 edge_15_22_0_0
 edge_15_24_0_0 edge_15_26_0_0 edge_15_27_0_0 edge_15_28_0_0 edge_15_29_0_0
 edge_15_30_0_0 edge_15_32_0_0 edge_16_17_0_0 edge_16_21_0_0 edge_16_22_0_0
 edge_16_24_0_0 edge_16_26_0_0 edge_17_16_0_0 edge_18_4_0_0 edge_18_5_0_0
 edge_18_6_0_0 edge_18_8_0_0 edge_18_10_0_0 edge_18_14_0_0 edge_18_19_0_0
 edge_18_22_0_0 edge_18_23_0_0 edge_18_29_0_0 edge_18_30_0_0 edge_18_32_0_0
 edge_19_23_0_0 edge_21_4_0_0 edge_21_8_0_0 edge_21_10_0_0 edge_21_15_0_0
 edge_21_16_0_0 edge_21_17_0_0 edge_21_22_0_0 edge_21_24_0_0 edge_21_26_0_0
 edge_21_27_0_0 edge_21_28_0_0 edge_21_29_0_0 edge_21_30_0_0 edge_21_32_0_0
 edge_22_17_0_0 edge_22_21_0_0 edge_22_24_0_0 edge_22_26_0_0 edge_23_19_0_0
 edge_24_4_0_0 edge_24_15_0_0 edge_24_16_0_0 edge_24_17_0_0 edge_24_21_0_0
 edge_24_22_0_0 edge_24_26_0_0 edge_24_28_0_0 edge_24_30_0_0 edge_26_24_0_0
 edge_26_28_0_0 edge_27_1_0_0 edge_27_2_0_0 edge_27_4_0_0 edge_27_5_0_0
 edge_27_6_0_0 edge_27_7_0_0 edge_27_8_0_0 edge_27_10_0_0 edge_27_15_0_0
 edge_27_16_0_0 edge_27_17_0_0 edge_27_21_0_0 edge_27_22_0_0 edge_27_24_0_0
 edge_27_26_0_0 edge_27_28_0_0 edge_27_29_0_0 edge_27_30_0_0 edge_27_32_0_0
 edge_28_16_0_0 edge_28_17_0_0 edge_28_24_0_0 edge_28_26_0_0 edge_28_29_0_0
 edge_28_30_0_0 edge_29_28_0_0 edge_29_32_0_0 edge_30_1_0_0 edge_30_4_0_0
 edge_30_7_0_0 edge_30_8_0_0 edge_30_10_0_0 edge_30_14_0_0 edge_30_15_0_0
 edge_30_16_0_0 edge_30_17_0_0 edge_30_19_0_0 edge_30_21_0_0 edge_30_22_0_0
 edge_30_24_0_0 edge_30_26_0_0 edge_30_27_0_0 edge_30_28_0_0 edge_30_29_0_0
 edge_30_32_0_0 edge_32_30_0_0
End
